p edge 30 115 5
v 6 4 5 9 14 19 21
v 4 6 8 10 29
v 7 1 3 7 12 18 23 24
v 6 13 15 16 17 20 22
v 7 2 11 25 26 27 28 30
e 1 2
e 1 5
e 1 8
e 1 12
e 1 18
e 1 20
e 1 22
e 1 25
e 1 26
e 1 29
e 2 3
e 2 9
e 2 11
e 2 17
e 2 18
e 2 19
e 2 22
e 3 4
e 3 8
e 3 10
e 3 13
e 3 15
e 3 16
e 3 27
e 3 29
e 4 9
e 4 14
e 4 18
e 4 23
e 4 25
e 4 27
e 4 28
e 4 29
e 5 6
e 5 13
e 5 14
e 5 18
e 5 22
e 5 30
e 6 9
e 6 13
e 6 16
e 6 17
e 6 28
e 6 29
e 7 10
e 7 12
e 7 14
e 7 22
e 7 26
e 7 28
e 7 29
e 8 10
e 8 13
e 8 14
e 8 20
e 8 23
e 8 24
e 8 27
e 8 28
e 8 30
e 9 10
e 9 14
e 9 16
e 10 16
e 10 18
e 10 21
e 11 15
e 11 23
e 11 24
e 12 14
e 12 16
e 12 18
e 12 21
e 12 23
e 12 25
e 12 27
e 12 29
e 12 30
e 13 15
e 13 16
e 13 17
e 13 21
e 13 28
e 14 21
e 14 24
e 14 25
e 14 28
e 16 17
e 16 18
e 16 20
e 16 29
e 16 30
e 17 18
e 17 26
e 18 22
e 18 24
e 19 21
e 19 24
e 19 25
e 20 21
e 20 23
e 21 22
e 21 27
e 22 23
e 22 25
e 22 26
e 22 29
e 22 30
e 23 25
e 24 27
e 24 30
e 26 29
e 27 30
e 29 30
